c SAT Generator for power-law distributed variable frequencies
c -g u -v 20 -c 91 -k 3 -p 2.750000 -b 3.200000 -f /home/schmidt/Devel/ni-kop-sat/data/ensemble/ruf20-91/ruf20-91-723 -u 1 -U 1 -s 2049988292
p cnf 20 91
11 -15 19 0
-7 -13 -14 0
-9 12 16 0
-3 8 -14 0
-7 11 -14 0
-11 -12 -17 0
12 -13 18 0
-5 -8 -12 0
-4 7 -17 0
-2 -15 -18 0
-12 13 -14 0
1 2 12 0
-16 17 -20 0
11 15 17 0
-4 -16 -19 0
-18 19 -20 0
-2 3 19 0
14 -17 20 0
-2 15 17 0
-6 11 14 0
-1 2 -11 0
-1 -14 19 0
2 -7 15 0
-3 9 -11 0
6 -7 -12 0
5 -17 20 0
-12 -15 16 0
7 13 14 0
-9 -14 17 0
-1 -9 -18 0
2 -5 8 0
5 16 20 0
-10 13 14 0
2 -6 -17 0
-7 -8 -14 0
-13 -15 -16 0
-3 -17 20 0
5 -11 -17 0
7 8 13 0
9 -10 14 0
2 7 -13 0
7 -12 13 0
-9 -12 -19 0
2 -5 -19 0
-5 8 -19 0
4 -8 20 0
-3 10 -20 0
1 -2 -5 0
-2 5 -17 0
-2 -17 20 0
4 14 -15 0
-1 3 -15 0
6 13 -15 0
-5 7 12 0
-4 5 20 0
-2 -10 15 0
1 -12 18 0
-9 -14 -16 0
-11 13 -18 0
-1 7 -9 0
1 4 15 0
5 13 14 0
-7 -11 -13 0
-5 -17 20 0
7 -9 -14 0
8 -11 13 0
10 13 -15 0
5 -16 -18 0
5 -7 -9 0
-10 -13 -14 0
1 12 14 0
13 15 18 0
-8 16 20 0
7 -8 9 0
2 9 14 0
-2 -11 19 0
4 -14 15 0
4 8 11 0
2 3 7 0
12 14 -16 0
2 -8 -18 0
-1 -6 -19 0
7 -12 17 0
3 -16 -17 0
-4 -9 -14 0
-1 12 18 0
-8 9 20 0
1 2 15 0
-4 -8 -12 0
7 8 18 0
1 -7 -17 0
